c *********************************
c * Circuit generated by BenCGen
c *
c * Parity_447
c *
c * Ports with 1 gate(s): 1
c * Ports with 2 gate(s): 447
c * Total gates: 448
c *********************************
p cnf 895 1789
1 450 0
-1 -450 0
1 -449 0
450 -449 0
-1 -450 449 0
1 2 -451 0
-1 2 451 0
1 -2 451 0
-1 -2 -451 0
3 4 -452 0
-3 4 452 0
3 -4 452 0
-3 -4 -452 0
5 6 -453 0
-5 6 453 0
5 -6 453 0
-5 -6 -453 0
7 8 -454 0
-7 8 454 0
7 -8 454 0
-7 -8 -454 0
9 10 -455 0
-9 10 455 0
9 -10 455 0
-9 -10 -455 0
11 12 -456 0
-11 12 456 0
11 -12 456 0
-11 -12 -456 0
13 14 -457 0
-13 14 457 0
13 -14 457 0
-13 -14 -457 0
15 16 -458 0
-15 16 458 0
15 -16 458 0
-15 -16 -458 0
17 18 -459 0
-17 18 459 0
17 -18 459 0
-17 -18 -459 0
19 20 -460 0
-19 20 460 0
19 -20 460 0
-19 -20 -460 0
21 22 -461 0
-21 22 461 0
21 -22 461 0
-21 -22 -461 0
23 24 -462 0
-23 24 462 0
23 -24 462 0
-23 -24 -462 0
25 26 -463 0
-25 26 463 0
25 -26 463 0
-25 -26 -463 0
27 28 -464 0
-27 28 464 0
27 -28 464 0
-27 -28 -464 0
29 30 -465 0
-29 30 465 0
29 -30 465 0
-29 -30 -465 0
31 32 -466 0
-31 32 466 0
31 -32 466 0
-31 -32 -466 0
33 34 -467 0
-33 34 467 0
33 -34 467 0
-33 -34 -467 0
35 36 -468 0
-35 36 468 0
35 -36 468 0
-35 -36 -468 0
37 38 -469 0
-37 38 469 0
37 -38 469 0
-37 -38 -469 0
39 40 -470 0
-39 40 470 0
39 -40 470 0
-39 -40 -470 0
41 42 -471 0
-41 42 471 0
41 -42 471 0
-41 -42 -471 0
43 44 -472 0
-43 44 472 0
43 -44 472 0
-43 -44 -472 0
45 46 -473 0
-45 46 473 0
45 -46 473 0
-45 -46 -473 0
47 48 -474 0
-47 48 474 0
47 -48 474 0
-47 -48 -474 0
49 50 -475 0
-49 50 475 0
49 -50 475 0
-49 -50 -475 0
51 52 -476 0
-51 52 476 0
51 -52 476 0
-51 -52 -476 0
53 54 -477 0
-53 54 477 0
53 -54 477 0
-53 -54 -477 0
55 56 -478 0
-55 56 478 0
55 -56 478 0
-55 -56 -478 0
57 58 -479 0
-57 58 479 0
57 -58 479 0
-57 -58 -479 0
59 60 -480 0
-59 60 480 0
59 -60 480 0
-59 -60 -480 0
61 62 -481 0
-61 62 481 0
61 -62 481 0
-61 -62 -481 0
63 64 -482 0
-63 64 482 0
63 -64 482 0
-63 -64 -482 0
65 66 -483 0
-65 66 483 0
65 -66 483 0
-65 -66 -483 0
67 68 -484 0
-67 68 484 0
67 -68 484 0
-67 -68 -484 0
69 70 -485 0
-69 70 485 0
69 -70 485 0
-69 -70 -485 0
71 72 -486 0
-71 72 486 0
71 -72 486 0
-71 -72 -486 0
73 74 -487 0
-73 74 487 0
73 -74 487 0
-73 -74 -487 0
75 76 -488 0
-75 76 488 0
75 -76 488 0
-75 -76 -488 0
77 78 -489 0
-77 78 489 0
77 -78 489 0
-77 -78 -489 0
79 80 -490 0
-79 80 490 0
79 -80 490 0
-79 -80 -490 0
81 82 -491 0
-81 82 491 0
81 -82 491 0
-81 -82 -491 0
83 84 -492 0
-83 84 492 0
83 -84 492 0
-83 -84 -492 0
85 86 -493 0
-85 86 493 0
85 -86 493 0
-85 -86 -493 0
87 88 -494 0
-87 88 494 0
87 -88 494 0
-87 -88 -494 0
89 90 -495 0
-89 90 495 0
89 -90 495 0
-89 -90 -495 0
91 92 -496 0
-91 92 496 0
91 -92 496 0
-91 -92 -496 0
93 94 -497 0
-93 94 497 0
93 -94 497 0
-93 -94 -497 0
95 96 -498 0
-95 96 498 0
95 -96 498 0
-95 -96 -498 0
97 98 -499 0
-97 98 499 0
97 -98 499 0
-97 -98 -499 0
99 100 -500 0
-99 100 500 0
99 -100 500 0
-99 -100 -500 0
101 102 -501 0
-101 102 501 0
101 -102 501 0
-101 -102 -501 0
103 104 -502 0
-103 104 502 0
103 -104 502 0
-103 -104 -502 0
105 106 -503 0
-105 106 503 0
105 -106 503 0
-105 -106 -503 0
107 108 -504 0
-107 108 504 0
107 -108 504 0
-107 -108 -504 0
109 110 -505 0
-109 110 505 0
109 -110 505 0
-109 -110 -505 0
111 112 -506 0
-111 112 506 0
111 -112 506 0
-111 -112 -506 0
113 114 -507 0
-113 114 507 0
113 -114 507 0
-113 -114 -507 0
115 116 -508 0
-115 116 508 0
115 -116 508 0
-115 -116 -508 0
117 118 -509 0
-117 118 509 0
117 -118 509 0
-117 -118 -509 0
119 120 -510 0
-119 120 510 0
119 -120 510 0
-119 -120 -510 0
121 122 -511 0
-121 122 511 0
121 -122 511 0
-121 -122 -511 0
123 124 -512 0
-123 124 512 0
123 -124 512 0
-123 -124 -512 0
125 126 -513 0
-125 126 513 0
125 -126 513 0
-125 -126 -513 0
127 128 -514 0
-127 128 514 0
127 -128 514 0
-127 -128 -514 0
129 130 -515 0
-129 130 515 0
129 -130 515 0
-129 -130 -515 0
131 132 -516 0
-131 132 516 0
131 -132 516 0
-131 -132 -516 0
133 134 -517 0
-133 134 517 0
133 -134 517 0
-133 -134 -517 0
135 136 -518 0
-135 136 518 0
135 -136 518 0
-135 -136 -518 0
137 138 -519 0
-137 138 519 0
137 -138 519 0
-137 -138 -519 0
139 140 -520 0
-139 140 520 0
139 -140 520 0
-139 -140 -520 0
141 142 -521 0
-141 142 521 0
141 -142 521 0
-141 -142 -521 0
143 144 -522 0
-143 144 522 0
143 -144 522 0
-143 -144 -522 0
145 146 -523 0
-145 146 523 0
145 -146 523 0
-145 -146 -523 0
147 148 -524 0
-147 148 524 0
147 -148 524 0
-147 -148 -524 0
149 150 -525 0
-149 150 525 0
149 -150 525 0
-149 -150 -525 0
151 152 -526 0
-151 152 526 0
151 -152 526 0
-151 -152 -526 0
153 154 -527 0
-153 154 527 0
153 -154 527 0
-153 -154 -527 0
155 156 -528 0
-155 156 528 0
155 -156 528 0
-155 -156 -528 0
157 158 -529 0
-157 158 529 0
157 -158 529 0
-157 -158 -529 0
159 160 -530 0
-159 160 530 0
159 -160 530 0
-159 -160 -530 0
161 162 -531 0
-161 162 531 0
161 -162 531 0
-161 -162 -531 0
163 164 -532 0
-163 164 532 0
163 -164 532 0
-163 -164 -532 0
165 166 -533 0
-165 166 533 0
165 -166 533 0
-165 -166 -533 0
167 168 -534 0
-167 168 534 0
167 -168 534 0
-167 -168 -534 0
169 170 -535 0
-169 170 535 0
169 -170 535 0
-169 -170 -535 0
171 172 -536 0
-171 172 536 0
171 -172 536 0
-171 -172 -536 0
173 174 -537 0
-173 174 537 0
173 -174 537 0
-173 -174 -537 0
175 176 -538 0
-175 176 538 0
175 -176 538 0
-175 -176 -538 0
177 178 -539 0
-177 178 539 0
177 -178 539 0
-177 -178 -539 0
179 180 -540 0
-179 180 540 0
179 -180 540 0
-179 -180 -540 0
181 182 -541 0
-181 182 541 0
181 -182 541 0
-181 -182 -541 0
183 184 -542 0
-183 184 542 0
183 -184 542 0
-183 -184 -542 0
185 186 -543 0
-185 186 543 0
185 -186 543 0
-185 -186 -543 0
187 188 -544 0
-187 188 544 0
187 -188 544 0
-187 -188 -544 0
189 190 -545 0
-189 190 545 0
189 -190 545 0
-189 -190 -545 0
191 192 -546 0
-191 192 546 0
191 -192 546 0
-191 -192 -546 0
193 194 -547 0
-193 194 547 0
193 -194 547 0
-193 -194 -547 0
195 196 -548 0
-195 196 548 0
195 -196 548 0
-195 -196 -548 0
197 198 -549 0
-197 198 549 0
197 -198 549 0
-197 -198 -549 0
199 200 -550 0
-199 200 550 0
199 -200 550 0
-199 -200 -550 0
201 202 -551 0
-201 202 551 0
201 -202 551 0
-201 -202 -551 0
203 204 -552 0
-203 204 552 0
203 -204 552 0
-203 -204 -552 0
205 206 -553 0
-205 206 553 0
205 -206 553 0
-205 -206 -553 0
207 208 -554 0
-207 208 554 0
207 -208 554 0
-207 -208 -554 0
209 210 -555 0
-209 210 555 0
209 -210 555 0
-209 -210 -555 0
211 212 -556 0
-211 212 556 0
211 -212 556 0
-211 -212 -556 0
213 214 -557 0
-213 214 557 0
213 -214 557 0
-213 -214 -557 0
215 216 -558 0
-215 216 558 0
215 -216 558 0
-215 -216 -558 0
217 218 -559 0
-217 218 559 0
217 -218 559 0
-217 -218 -559 0
219 220 -560 0
-219 220 560 0
219 -220 560 0
-219 -220 -560 0
221 222 -561 0
-221 222 561 0
221 -222 561 0
-221 -222 -561 0
223 224 -562 0
-223 224 562 0
223 -224 562 0
-223 -224 -562 0
225 226 -563 0
-225 226 563 0
225 -226 563 0
-225 -226 -563 0
227 228 -564 0
-227 228 564 0
227 -228 564 0
-227 -228 -564 0
229 230 -565 0
-229 230 565 0
229 -230 565 0
-229 -230 -565 0
231 232 -566 0
-231 232 566 0
231 -232 566 0
-231 -232 -566 0
233 234 -567 0
-233 234 567 0
233 -234 567 0
-233 -234 -567 0
235 236 -568 0
-235 236 568 0
235 -236 568 0
-235 -236 -568 0
237 238 -569 0
-237 238 569 0
237 -238 569 0
-237 -238 -569 0
239 240 -570 0
-239 240 570 0
239 -240 570 0
-239 -240 -570 0
241 242 -571 0
-241 242 571 0
241 -242 571 0
-241 -242 -571 0
243 244 -572 0
-243 244 572 0
243 -244 572 0
-243 -244 -572 0
245 246 -573 0
-245 246 573 0
245 -246 573 0
-245 -246 -573 0
247 248 -574 0
-247 248 574 0
247 -248 574 0
-247 -248 -574 0
249 250 -575 0
-249 250 575 0
249 -250 575 0
-249 -250 -575 0
251 252 -576 0
-251 252 576 0
251 -252 576 0
-251 -252 -576 0
253 254 -577 0
-253 254 577 0
253 -254 577 0
-253 -254 -577 0
255 256 -578 0
-255 256 578 0
255 -256 578 0
-255 -256 -578 0
257 258 -579 0
-257 258 579 0
257 -258 579 0
-257 -258 -579 0
259 260 -580 0
-259 260 580 0
259 -260 580 0
-259 -260 -580 0
261 262 -581 0
-261 262 581 0
261 -262 581 0
-261 -262 -581 0
263 264 -582 0
-263 264 582 0
263 -264 582 0
-263 -264 -582 0
265 266 -583 0
-265 266 583 0
265 -266 583 0
-265 -266 -583 0
267 268 -584 0
-267 268 584 0
267 -268 584 0
-267 -268 -584 0
269 270 -585 0
-269 270 585 0
269 -270 585 0
-269 -270 -585 0
271 272 -586 0
-271 272 586 0
271 -272 586 0
-271 -272 -586 0
273 274 -587 0
-273 274 587 0
273 -274 587 0
-273 -274 -587 0
275 276 -588 0
-275 276 588 0
275 -276 588 0
-275 -276 -588 0
277 278 -589 0
-277 278 589 0
277 -278 589 0
-277 -278 -589 0
279 280 -590 0
-279 280 590 0
279 -280 590 0
-279 -280 -590 0
281 282 -591 0
-281 282 591 0
281 -282 591 0
-281 -282 -591 0
283 284 -592 0
-283 284 592 0
283 -284 592 0
-283 -284 -592 0
285 286 -593 0
-285 286 593 0
285 -286 593 0
-285 -286 -593 0
287 288 -594 0
-287 288 594 0
287 -288 594 0
-287 -288 -594 0
289 290 -595 0
-289 290 595 0
289 -290 595 0
-289 -290 -595 0
291 292 -596 0
-291 292 596 0
291 -292 596 0
-291 -292 -596 0
293 294 -597 0
-293 294 597 0
293 -294 597 0
-293 -294 -597 0
295 296 -598 0
-295 296 598 0
295 -296 598 0
-295 -296 -598 0
297 298 -599 0
-297 298 599 0
297 -298 599 0
-297 -298 -599 0
299 300 -600 0
-299 300 600 0
299 -300 600 0
-299 -300 -600 0
301 302 -601 0
-301 302 601 0
301 -302 601 0
-301 -302 -601 0
303 304 -602 0
-303 304 602 0
303 -304 602 0
-303 -304 -602 0
305 306 -603 0
-305 306 603 0
305 -306 603 0
-305 -306 -603 0
307 308 -604 0
-307 308 604 0
307 -308 604 0
-307 -308 -604 0
309 310 -605 0
-309 310 605 0
309 -310 605 0
-309 -310 -605 0
311 312 -606 0
-311 312 606 0
311 -312 606 0
-311 -312 -606 0
313 314 -607 0
-313 314 607 0
313 -314 607 0
-313 -314 -607 0
315 316 -608 0
-315 316 608 0
315 -316 608 0
-315 -316 -608 0
317 318 -609 0
-317 318 609 0
317 -318 609 0
-317 -318 -609 0
319 320 -610 0
-319 320 610 0
319 -320 610 0
-319 -320 -610 0
321 322 -611 0
-321 322 611 0
321 -322 611 0
-321 -322 -611 0
323 324 -612 0
-323 324 612 0
323 -324 612 0
-323 -324 -612 0
325 326 -613 0
-325 326 613 0
325 -326 613 0
-325 -326 -613 0
327 328 -614 0
-327 328 614 0
327 -328 614 0
-327 -328 -614 0
329 330 -615 0
-329 330 615 0
329 -330 615 0
-329 -330 -615 0
331 332 -616 0
-331 332 616 0
331 -332 616 0
-331 -332 -616 0
333 334 -617 0
-333 334 617 0
333 -334 617 0
-333 -334 -617 0
335 336 -618 0
-335 336 618 0
335 -336 618 0
-335 -336 -618 0
337 338 -619 0
-337 338 619 0
337 -338 619 0
-337 -338 -619 0
339 340 -620 0
-339 340 620 0
339 -340 620 0
-339 -340 -620 0
341 342 -621 0
-341 342 621 0
341 -342 621 0
-341 -342 -621 0
343 344 -622 0
-343 344 622 0
343 -344 622 0
-343 -344 -622 0
345 346 -623 0
-345 346 623 0
345 -346 623 0
-345 -346 -623 0
347 348 -624 0
-347 348 624 0
347 -348 624 0
-347 -348 -624 0
349 350 -625 0
-349 350 625 0
349 -350 625 0
-349 -350 -625 0
351 352 -626 0
-351 352 626 0
351 -352 626 0
-351 -352 -626 0
353 354 -627 0
-353 354 627 0
353 -354 627 0
-353 -354 -627 0
355 356 -628 0
-355 356 628 0
355 -356 628 0
-355 -356 -628 0
357 358 -629 0
-357 358 629 0
357 -358 629 0
-357 -358 -629 0
359 360 -630 0
-359 360 630 0
359 -360 630 0
-359 -360 -630 0
361 362 -631 0
-361 362 631 0
361 -362 631 0
-361 -362 -631 0
363 364 -632 0
-363 364 632 0
363 -364 632 0
-363 -364 -632 0
365 366 -633 0
-365 366 633 0
365 -366 633 0
-365 -366 -633 0
367 368 -634 0
-367 368 634 0
367 -368 634 0
-367 -368 -634 0
369 370 -635 0
-369 370 635 0
369 -370 635 0
-369 -370 -635 0
371 372 -636 0
-371 372 636 0
371 -372 636 0
-371 -372 -636 0
373 374 -637 0
-373 374 637 0
373 -374 637 0
-373 -374 -637 0
375 376 -638 0
-375 376 638 0
375 -376 638 0
-375 -376 -638 0
377 378 -639 0
-377 378 639 0
377 -378 639 0
-377 -378 -639 0
379 380 -640 0
-379 380 640 0
379 -380 640 0
-379 -380 -640 0
381 382 -641 0
-381 382 641 0
381 -382 641 0
-381 -382 -641 0
383 384 -642 0
-383 384 642 0
383 -384 642 0
-383 -384 -642 0
385 386 -643 0
-385 386 643 0
385 -386 643 0
-385 -386 -643 0
387 388 -644 0
-387 388 644 0
387 -388 644 0
-387 -388 -644 0
389 390 -645 0
-389 390 645 0
389 -390 645 0
-389 -390 -645 0
391 392 -646 0
-391 392 646 0
391 -392 646 0
-391 -392 -646 0
393 394 -647 0
-393 394 647 0
393 -394 647 0
-393 -394 -647 0
395 396 -648 0
-395 396 648 0
395 -396 648 0
-395 -396 -648 0
397 398 -649 0
-397 398 649 0
397 -398 649 0
-397 -398 -649 0
399 400 -650 0
-399 400 650 0
399 -400 650 0
-399 -400 -650 0
401 402 -651 0
-401 402 651 0
401 -402 651 0
-401 -402 -651 0
403 404 -652 0
-403 404 652 0
403 -404 652 0
-403 -404 -652 0
405 406 -653 0
-405 406 653 0
405 -406 653 0
-405 -406 -653 0
407 408 -654 0
-407 408 654 0
407 -408 654 0
-407 -408 -654 0
409 410 -655 0
-409 410 655 0
409 -410 655 0
-409 -410 -655 0
411 412 -656 0
-411 412 656 0
411 -412 656 0
-411 -412 -656 0
413 414 -657 0
-413 414 657 0
413 -414 657 0
-413 -414 -657 0
415 416 -658 0
-415 416 658 0
415 -416 658 0
-415 -416 -658 0
417 418 -659 0
-417 418 659 0
417 -418 659 0
-417 -418 -659 0
419 420 -660 0
-419 420 660 0
419 -420 660 0
-419 -420 -660 0
421 422 -661 0
-421 422 661 0
421 -422 661 0
-421 -422 -661 0
423 424 -662 0
-423 424 662 0
423 -424 662 0
-423 -424 -662 0
425 426 -663 0
-425 426 663 0
425 -426 663 0
-425 -426 -663 0
427 428 -664 0
-427 428 664 0
427 -428 664 0
-427 -428 -664 0
429 430 -665 0
-429 430 665 0
429 -430 665 0
-429 -430 -665 0
431 432 -666 0
-431 432 666 0
431 -432 666 0
-431 -432 -666 0
433 434 -667 0
-433 434 667 0
433 -434 667 0
-433 -434 -667 0
435 436 -668 0
-435 436 668 0
435 -436 668 0
-435 -436 -668 0
437 438 -669 0
-437 438 669 0
437 -438 669 0
-437 -438 -669 0
439 440 -670 0
-439 440 670 0
439 -440 670 0
-439 -440 -670 0
441 442 -671 0
-441 442 671 0
441 -442 671 0
-441 -442 -671 0
443 444 -672 0
-443 444 672 0
443 -444 672 0
-443 -444 -672 0
445 446 -673 0
-445 446 673 0
445 -446 673 0
-445 -446 -673 0
451 452 -674 0
-451 452 674 0
451 -452 674 0
-451 -452 -674 0
453 454 -675 0
-453 454 675 0
453 -454 675 0
-453 -454 -675 0
455 456 -676 0
-455 456 676 0
455 -456 676 0
-455 -456 -676 0
457 458 -677 0
-457 458 677 0
457 -458 677 0
-457 -458 -677 0
459 460 -678 0
-459 460 678 0
459 -460 678 0
-459 -460 -678 0
461 462 -679 0
-461 462 679 0
461 -462 679 0
-461 -462 -679 0
463 464 -680 0
-463 464 680 0
463 -464 680 0
-463 -464 -680 0
465 466 -681 0
-465 466 681 0
465 -466 681 0
-465 -466 -681 0
467 468 -682 0
-467 468 682 0
467 -468 682 0
-467 -468 -682 0
469 470 -683 0
-469 470 683 0
469 -470 683 0
-469 -470 -683 0
471 472 -684 0
-471 472 684 0
471 -472 684 0
-471 -472 -684 0
473 474 -685 0
-473 474 685 0
473 -474 685 0
-473 -474 -685 0
475 476 -686 0
-475 476 686 0
475 -476 686 0
-475 -476 -686 0
477 478 -687 0
-477 478 687 0
477 -478 687 0
-477 -478 -687 0
479 480 -688 0
-479 480 688 0
479 -480 688 0
-479 -480 -688 0
481 482 -689 0
-481 482 689 0
481 -482 689 0
-481 -482 -689 0
483 484 -690 0
-483 484 690 0
483 -484 690 0
-483 -484 -690 0
485 486 -691 0
-485 486 691 0
485 -486 691 0
-485 -486 -691 0
487 488 -692 0
-487 488 692 0
487 -488 692 0
-487 -488 -692 0
489 490 -693 0
-489 490 693 0
489 -490 693 0
-489 -490 -693 0
491 492 -694 0
-491 492 694 0
491 -492 694 0
-491 -492 -694 0
493 494 -695 0
-493 494 695 0
493 -494 695 0
-493 -494 -695 0
495 496 -696 0
-495 496 696 0
495 -496 696 0
-495 -496 -696 0
497 498 -697 0
-497 498 697 0
497 -498 697 0
-497 -498 -697 0
499 500 -698 0
-499 500 698 0
499 -500 698 0
-499 -500 -698 0
501 502 -699 0
-501 502 699 0
501 -502 699 0
-501 -502 -699 0
503 504 -700 0
-503 504 700 0
503 -504 700 0
-503 -504 -700 0
505 506 -701 0
-505 506 701 0
505 -506 701 0
-505 -506 -701 0
507 508 -702 0
-507 508 702 0
507 -508 702 0
-507 -508 -702 0
509 510 -703 0
-509 510 703 0
509 -510 703 0
-509 -510 -703 0
511 512 -704 0
-511 512 704 0
511 -512 704 0
-511 -512 -704 0
513 514 -705 0
-513 514 705 0
513 -514 705 0
-513 -514 -705 0
515 516 -706 0
-515 516 706 0
515 -516 706 0
-515 -516 -706 0
517 518 -707 0
-517 518 707 0
517 -518 707 0
-517 -518 -707 0
519 520 -708 0
-519 520 708 0
519 -520 708 0
-519 -520 -708 0
521 522 -709 0
-521 522 709 0
521 -522 709 0
-521 -522 -709 0
523 524 -710 0
-523 524 710 0
523 -524 710 0
-523 -524 -710 0
525 526 -711 0
-525 526 711 0
525 -526 711 0
-525 -526 -711 0
527 528 -712 0
-527 528 712 0
527 -528 712 0
-527 -528 -712 0
529 530 -713 0
-529 530 713 0
529 -530 713 0
-529 -530 -713 0
531 532 -714 0
-531 532 714 0
531 -532 714 0
-531 -532 -714 0
533 534 -715 0
-533 534 715 0
533 -534 715 0
-533 -534 -715 0
535 536 -716 0
-535 536 716 0
535 -536 716 0
-535 -536 -716 0
537 538 -717 0
-537 538 717 0
537 -538 717 0
-537 -538 -717 0
539 540 -718 0
-539 540 718 0
539 -540 718 0
-539 -540 -718 0
541 542 -719 0
-541 542 719 0
541 -542 719 0
-541 -542 -719 0
543 544 -720 0
-543 544 720 0
543 -544 720 0
-543 -544 -720 0
545 546 -721 0
-545 546 721 0
545 -546 721 0
-545 -546 -721 0
547 548 -722 0
-547 548 722 0
547 -548 722 0
-547 -548 -722 0
549 550 -723 0
-549 550 723 0
549 -550 723 0
-549 -550 -723 0
551 552 -724 0
-551 552 724 0
551 -552 724 0
-551 -552 -724 0
553 554 -725 0
-553 554 725 0
553 -554 725 0
-553 -554 -725 0
555 556 -726 0
-555 556 726 0
555 -556 726 0
-555 -556 -726 0
557 558 -727 0
-557 558 727 0
557 -558 727 0
-557 -558 -727 0
559 560 -728 0
-559 560 728 0
559 -560 728 0
-559 -560 -728 0
561 562 -729 0
-561 562 729 0
561 -562 729 0
-561 -562 -729 0
563 564 -730 0
-563 564 730 0
563 -564 730 0
-563 -564 -730 0
565 566 -731 0
-565 566 731 0
565 -566 731 0
-565 -566 -731 0
567 568 -732 0
-567 568 732 0
567 -568 732 0
-567 -568 -732 0
569 570 -733 0
-569 570 733 0
569 -570 733 0
-569 -570 -733 0
571 572 -734 0
-571 572 734 0
571 -572 734 0
-571 -572 -734 0
573 574 -735 0
-573 574 735 0
573 -574 735 0
-573 -574 -735 0
575 576 -736 0
-575 576 736 0
575 -576 736 0
-575 -576 -736 0
577 578 -737 0
-577 578 737 0
577 -578 737 0
-577 -578 -737 0
579 580 -738 0
-579 580 738 0
579 -580 738 0
-579 -580 -738 0
581 582 -739 0
-581 582 739 0
581 -582 739 0
-581 -582 -739 0
583 584 -740 0
-583 584 740 0
583 -584 740 0
-583 -584 -740 0
585 586 -741 0
-585 586 741 0
585 -586 741 0
-585 -586 -741 0
587 588 -742 0
-587 588 742 0
587 -588 742 0
-587 -588 -742 0
589 590 -743 0
-589 590 743 0
589 -590 743 0
-589 -590 -743 0
591 592 -744 0
-591 592 744 0
591 -592 744 0
-591 -592 -744 0
593 594 -745 0
-593 594 745 0
593 -594 745 0
-593 -594 -745 0
595 596 -746 0
-595 596 746 0
595 -596 746 0
-595 -596 -746 0
597 598 -747 0
-597 598 747 0
597 -598 747 0
-597 -598 -747 0
599 600 -748 0
-599 600 748 0
599 -600 748 0
-599 -600 -748 0
601 602 -749 0
-601 602 749 0
601 -602 749 0
-601 -602 -749 0
603 604 -750 0
-603 604 750 0
603 -604 750 0
-603 -604 -750 0
605 606 -751 0
-605 606 751 0
605 -606 751 0
-605 -606 -751 0
607 608 -752 0
-607 608 752 0
607 -608 752 0
-607 -608 -752 0
609 610 -753 0
-609 610 753 0
609 -610 753 0
-609 -610 -753 0
611 612 -754 0
-611 612 754 0
611 -612 754 0
-611 -612 -754 0
613 614 -755 0
-613 614 755 0
613 -614 755 0
-613 -614 -755 0
615 616 -756 0
-615 616 756 0
615 -616 756 0
-615 -616 -756 0
617 618 -757 0
-617 618 757 0
617 -618 757 0
-617 -618 -757 0
619 620 -758 0
-619 620 758 0
619 -620 758 0
-619 -620 -758 0
621 622 -759 0
-621 622 759 0
621 -622 759 0
-621 -622 -759 0
623 624 -760 0
-623 624 760 0
623 -624 760 0
-623 -624 -760 0
625 626 -761 0
-625 626 761 0
625 -626 761 0
-625 -626 -761 0
627 628 -762 0
-627 628 762 0
627 -628 762 0
-627 -628 -762 0
629 630 -763 0
-629 630 763 0
629 -630 763 0
-629 -630 -763 0
631 632 -764 0
-631 632 764 0
631 -632 764 0
-631 -632 -764 0
633 634 -765 0
-633 634 765 0
633 -634 765 0
-633 -634 -765 0
635 636 -766 0
-635 636 766 0
635 -636 766 0
-635 -636 -766 0
637 638 -767 0
-637 638 767 0
637 -638 767 0
-637 -638 -767 0
639 640 -768 0
-639 640 768 0
639 -640 768 0
-639 -640 -768 0
641 642 -769 0
-641 642 769 0
641 -642 769 0
-641 -642 -769 0
643 644 -770 0
-643 644 770 0
643 -644 770 0
-643 -644 -770 0
645 646 -771 0
-645 646 771 0
645 -646 771 0
-645 -646 -771 0
647 648 -772 0
-647 648 772 0
647 -648 772 0
-647 -648 -772 0
649 650 -773 0
-649 650 773 0
649 -650 773 0
-649 -650 -773 0
651 652 -774 0
-651 652 774 0
651 -652 774 0
-651 -652 -774 0
653 654 -775 0
-653 654 775 0
653 -654 775 0
-653 -654 -775 0
655 656 -776 0
-655 656 776 0
655 -656 776 0
-655 -656 -776 0
657 658 -777 0
-657 658 777 0
657 -658 777 0
-657 -658 -777 0
659 660 -778 0
-659 660 778 0
659 -660 778 0
-659 -660 -778 0
661 662 -779 0
-661 662 779 0
661 -662 779 0
-661 -662 -779 0
663 664 -780 0
-663 664 780 0
663 -664 780 0
-663 -664 -780 0
665 666 -781 0
-665 666 781 0
665 -666 781 0
-665 -666 -781 0
667 668 -782 0
-667 668 782 0
667 -668 782 0
-667 -668 -782 0
669 670 -783 0
-669 670 783 0
669 -670 783 0
-669 -670 -783 0
671 672 -784 0
-671 672 784 0
671 -672 784 0
-671 -672 -784 0
673 447 -785 0
-673 447 785 0
673 -447 785 0
-673 -447 -785 0
674 675 -786 0
-674 675 786 0
674 -675 786 0
-674 -675 -786 0
676 677 -787 0
-676 677 787 0
676 -677 787 0
-676 -677 -787 0
678 679 -788 0
-678 679 788 0
678 -679 788 0
-678 -679 -788 0
680 681 -789 0
-680 681 789 0
680 -681 789 0
-680 -681 -789 0
682 683 -790 0
-682 683 790 0
682 -683 790 0
-682 -683 -790 0
684 685 -791 0
-684 685 791 0
684 -685 791 0
-684 -685 -791 0
686 687 -792 0
-686 687 792 0
686 -687 792 0
-686 -687 -792 0
688 689 -793 0
-688 689 793 0
688 -689 793 0
-688 -689 -793 0
690 691 -794 0
-690 691 794 0
690 -691 794 0
-690 -691 -794 0
692 693 -795 0
-692 693 795 0
692 -693 795 0
-692 -693 -795 0
694 695 -796 0
-694 695 796 0
694 -695 796 0
-694 -695 -796 0
696 697 -797 0
-696 697 797 0
696 -697 797 0
-696 -697 -797 0
698 699 -798 0
-698 699 798 0
698 -699 798 0
-698 -699 -798 0
700 701 -799 0
-700 701 799 0
700 -701 799 0
-700 -701 -799 0
702 703 -800 0
-702 703 800 0
702 -703 800 0
-702 -703 -800 0
704 705 -801 0
-704 705 801 0
704 -705 801 0
-704 -705 -801 0
706 707 -802 0
-706 707 802 0
706 -707 802 0
-706 -707 -802 0
708 709 -803 0
-708 709 803 0
708 -709 803 0
-708 -709 -803 0
710 711 -804 0
-710 711 804 0
710 -711 804 0
-710 -711 -804 0
712 713 -805 0
-712 713 805 0
712 -713 805 0
-712 -713 -805 0
714 715 -806 0
-714 715 806 0
714 -715 806 0
-714 -715 -806 0
716 717 -807 0
-716 717 807 0
716 -717 807 0
-716 -717 -807 0
718 719 -808 0
-718 719 808 0
718 -719 808 0
-718 -719 -808 0
720 721 -809 0
-720 721 809 0
720 -721 809 0
-720 -721 -809 0
722 723 -810 0
-722 723 810 0
722 -723 810 0
-722 -723 -810 0
724 725 -811 0
-724 725 811 0
724 -725 811 0
-724 -725 -811 0
726 727 -812 0
-726 727 812 0
726 -727 812 0
-726 -727 -812 0
728 729 -813 0
-728 729 813 0
728 -729 813 0
-728 -729 -813 0
730 731 -814 0
-730 731 814 0
730 -731 814 0
-730 -731 -814 0
732 733 -815 0
-732 733 815 0
732 -733 815 0
-732 -733 -815 0
734 735 -816 0
-734 735 816 0
734 -735 816 0
-734 -735 -816 0
736 737 -817 0
-736 737 817 0
736 -737 817 0
-736 -737 -817 0
738 739 -818 0
-738 739 818 0
738 -739 818 0
-738 -739 -818 0
740 741 -819 0
-740 741 819 0
740 -741 819 0
-740 -741 -819 0
742 743 -820 0
-742 743 820 0
742 -743 820 0
-742 -743 -820 0
744 745 -821 0
-744 745 821 0
744 -745 821 0
-744 -745 -821 0
746 747 -822 0
-746 747 822 0
746 -747 822 0
-746 -747 -822 0
748 749 -823 0
-748 749 823 0
748 -749 823 0
-748 -749 -823 0
750 751 -824 0
-750 751 824 0
750 -751 824 0
-750 -751 -824 0
752 753 -825 0
-752 753 825 0
752 -753 825 0
-752 -753 -825 0
754 755 -826 0
-754 755 826 0
754 -755 826 0
-754 -755 -826 0
756 757 -827 0
-756 757 827 0
756 -757 827 0
-756 -757 -827 0
758 759 -828 0
-758 759 828 0
758 -759 828 0
-758 -759 -828 0
760 761 -829 0
-760 761 829 0
760 -761 829 0
-760 -761 -829 0
762 763 -830 0
-762 763 830 0
762 -763 830 0
-762 -763 -830 0
764 765 -831 0
-764 765 831 0
764 -765 831 0
-764 -765 -831 0
766 767 -832 0
-766 767 832 0
766 -767 832 0
-766 -767 -832 0
768 769 -833 0
-768 769 833 0
768 -769 833 0
-768 -769 -833 0
770 771 -834 0
-770 771 834 0
770 -771 834 0
-770 -771 -834 0
772 773 -835 0
-772 773 835 0
772 -773 835 0
-772 -773 -835 0
774 775 -836 0
-774 775 836 0
774 -775 836 0
-774 -775 -836 0
776 777 -837 0
-776 777 837 0
776 -777 837 0
-776 -777 -837 0
778 779 -838 0
-778 779 838 0
778 -779 838 0
-778 -779 -838 0
780 781 -839 0
-780 781 839 0
780 -781 839 0
-780 -781 -839 0
782 783 -840 0
-782 783 840 0
782 -783 840 0
-782 -783 -840 0
784 785 -841 0
-784 785 841 0
784 -785 841 0
-784 -785 -841 0
786 787 -842 0
-786 787 842 0
786 -787 842 0
-786 -787 -842 0
788 789 -843 0
-788 789 843 0
788 -789 843 0
-788 -789 -843 0
790 791 -844 0
-790 791 844 0
790 -791 844 0
-790 -791 -844 0
792 793 -845 0
-792 793 845 0
792 -793 845 0
-792 -793 -845 0
794 795 -846 0
-794 795 846 0
794 -795 846 0
-794 -795 -846 0
796 797 -847 0
-796 797 847 0
796 -797 847 0
-796 -797 -847 0
798 799 -848 0
-798 799 848 0
798 -799 848 0
-798 -799 -848 0
800 801 -849 0
-800 801 849 0
800 -801 849 0
-800 -801 -849 0
802 803 -850 0
-802 803 850 0
802 -803 850 0
-802 -803 -850 0
804 805 -851 0
-804 805 851 0
804 -805 851 0
-804 -805 -851 0
806 807 -852 0
-806 807 852 0
806 -807 852 0
-806 -807 -852 0
808 809 -853 0
-808 809 853 0
808 -809 853 0
-808 -809 -853 0
810 811 -854 0
-810 811 854 0
810 -811 854 0
-810 -811 -854 0
812 813 -855 0
-812 813 855 0
812 -813 855 0
-812 -813 -855 0
814 815 -856 0
-814 815 856 0
814 -815 856 0
-814 -815 -856 0
816 817 -857 0
-816 817 857 0
816 -817 857 0
-816 -817 -857 0
818 819 -858 0
-818 819 858 0
818 -819 858 0
-818 -819 -858 0
820 821 -859 0
-820 821 859 0
820 -821 859 0
-820 -821 -859 0
822 823 -860 0
-822 823 860 0
822 -823 860 0
-822 -823 -860 0
824 825 -861 0
-824 825 861 0
824 -825 861 0
-824 -825 -861 0
826 827 -862 0
-826 827 862 0
826 -827 862 0
-826 -827 -862 0
828 829 -863 0
-828 829 863 0
828 -829 863 0
-828 -829 -863 0
830 831 -864 0
-830 831 864 0
830 -831 864 0
-830 -831 -864 0
832 833 -865 0
-832 833 865 0
832 -833 865 0
-832 -833 -865 0
834 835 -866 0
-834 835 866 0
834 -835 866 0
-834 -835 -866 0
836 837 -867 0
-836 837 867 0
836 -837 867 0
-836 -837 -867 0
838 839 -868 0
-838 839 868 0
838 -839 868 0
-838 -839 -868 0
840 841 -869 0
-840 841 869 0
840 -841 869 0
-840 -841 -869 0
842 843 -870 0
-842 843 870 0
842 -843 870 0
-842 -843 -870 0
844 845 -871 0
-844 845 871 0
844 -845 871 0
-844 -845 -871 0
846 847 -872 0
-846 847 872 0
846 -847 872 0
-846 -847 -872 0
848 849 -873 0
-848 849 873 0
848 -849 873 0
-848 -849 -873 0
850 851 -874 0
-850 851 874 0
850 -851 874 0
-850 -851 -874 0
852 853 -875 0
-852 853 875 0
852 -853 875 0
-852 -853 -875 0
854 855 -876 0
-854 855 876 0
854 -855 876 0
-854 -855 -876 0
856 857 -877 0
-856 857 877 0
856 -857 877 0
-856 -857 -877 0
858 859 -878 0
-858 859 878 0
858 -859 878 0
-858 -859 -878 0
860 861 -879 0
-860 861 879 0
860 -861 879 0
-860 -861 -879 0
862 863 -880 0
-862 863 880 0
862 -863 880 0
-862 -863 -880 0
864 865 -881 0
-864 865 881 0
864 -865 881 0
-864 -865 -881 0
866 867 -882 0
-866 867 882 0
866 -867 882 0
-866 -867 -882 0
868 869 -883 0
-868 869 883 0
868 -869 883 0
-868 -869 -883 0
870 871 -884 0
-870 871 884 0
870 -871 884 0
-870 -871 -884 0
872 873 -885 0
-872 873 885 0
872 -873 885 0
-872 -873 -885 0
874 875 -886 0
-874 875 886 0
874 -875 886 0
-874 -875 -886 0
876 877 -887 0
-876 877 887 0
876 -877 887 0
-876 -877 -887 0
878 879 -888 0
-878 879 888 0
878 -879 888 0
-878 -879 -888 0
880 881 -889 0
-880 881 889 0
880 -881 889 0
-880 -881 -889 0
882 883 -890 0
-882 883 890 0
882 -883 890 0
-882 -883 -890 0
884 885 -891 0
-884 885 891 0
884 -885 891 0
-884 -885 -891 0
886 887 -892 0
-886 887 892 0
886 -887 892 0
-886 -887 -892 0
888 889 -893 0
-888 889 893 0
888 -889 893 0
-888 -889 -893 0
891 892 -894 0
-891 892 894 0
891 -892 894 0
-891 -892 -894 0
893 890 -895 0
-893 890 895 0
893 -890 895 0
-893 -890 -895 0
894 895 -448 0
-894 895 448 0
894 -895 448 0
-894 -895 -448 0
